1963.62
0 48 13 35 7 38 3 0
0 12 50 55 49 64 45 0
0 27 54 31 44 0
0 4 46 58 16 0
0 43 23 25 10 40 0
0 65 19 52 29 22 2 0
0 60 20 5 72 32 0
0 24 18 53 59 0
0 41 56 63 33 39 0
0 74 28 68 51 14 0
0 67 8 26 9 0
0 37 71 36 61 30 73 17 0
0 62 21 66 0
0 1 42 47 70 15 75 0
0 69 57 11 34 6 0
